%%% static parameters %%%
timespan = 1;
Fact = [2];
Distr1 = [5];
Distr2 = [10];
Clients_N = [120];
Demand_W = [15];
Lt0 = [4];
Lt1 = [4];
SS_ = [0.85];
DS_D = [5];
K = [200];
MA = [500];
%%% dynamic parameters %%%
lost_ratio_sales_ret_th = 0.6025645326107564;
lost_ratio_sales_ret_w = 79;
lost_ratio_sales_dis_th = 0.0133340380519813;
lost_ratio_sales_dis_w = 99;
lost_ratio_sales_fac_th = 0.4433784784411301;
lost_ratio_sales_fac_w = 81;
stock_customer_MA_mean_relative_th = 0.7373042673013632;
stock_customer_MA_mean_relative_w = 46;
stock_distributor_MA_mean_relative_th = 0.189416047170339;
stock_distributor_MA_mean_relative_w = 19;
stock_retailer_MA_mean_relative_th = 0.891903807275495;
stock_retailer_MA_mean_relative_w = 83;
stock_factory_MA_mean_relative_th = 0.34153878763733214;
stock_factory_MA_mean_relative_w = 66;
